c Generated map
c Size: 9 * 9, weights in range: 1 to 10, walls: True, with ratio 0.05
c dim 3 of 8
c
p sp 81 129
c graph contains 81 nodes and 129 arcs
c
a 1 10 4
a 10 1 4
a 1 2 9
a 2 1 9
a 2 11 3
a 11 2 3
a 2 3 8
a 3 2 8
a 3 12 2
a 12 3 2
a 3 4 1
a 4 3 1
a 4 13 2
a 13 4 2
a 4 5 4
a 5 4 4
a 5 14 1
a 14 5 1
a 5 6 5
a 6 5 5
a 6 15 10
a 15 6 10
a 6 7 2
a 7 6 2
a 7 16 9
a 16 7 9
a 7 8 8
a 8 7 8
a 8 17 4
a 17 8 4
a 8 9 10
a 9 8 10
a 9 18 10
a 18 9 10
a 10 19 3
a 19 10 3
a 10 11 5
a 11 10 5
a 11 20 2
a 20 11 2
a 11 12 8
a 12 11 8
a 12 21 3
a 21 12 3
a 12 13 9
a 13 12 9
a 13 22 4
a 22 13 4
a 13 14 2
a 14 13 2
a 14 23 1
a 23 14 1
a 14 15 1
a 15 14 1
a 15 24 3
a 24 15 3
a 15 16 5
a 16 15 5
a 16 25 9
a 25 16 9
a 16 17 8
a 17 16 8
a 17 18 5
a 18 17 5
a 18 27 2
a 27 18 2
a 19 20 1
a 20 19 1
a 20 29 6
a 29 20 6
a 20 21 3
a 21 20 3
a 21 30 5
a 30 21 5
a 21 22 8
a 22 21 8
a 22 31 1
a 31 22 1
a 22 23 10
a 23 22 10
a 23 32 5
a 32 23 5
a 23 24 8
a 24 23 8
a 24 33 5
a 33 24 5
a 24 25 7
a 25 24 7
a 25 34 9
a 34 25 9
a 27 36 2
a 36 27 2
a 29 38 5
a 38 29 5
a 29 30 4
a 30 29 4
a 30 39 8
a 39 30 8
a 30 31 1
a 31 30 1
a 31 40 1
a 40 31 1
a 31 32 7
a 32 31 7
a 32 41 9
a 41 32 9
a 32 33 10
a 33 32 10
a 33 34 10
a 34 33 10
a 34 43 7
a 43 34 7
a 34 35 1
a 35 34 1
a 35 44 6
a 44 35 6
a 35 36 5
a 36 35 5
a 36 45 2
a 45 36 2
a 37 46 9
a 46 37 9
a 37 38 2
a 38 37 2
a 38 47 6
a 47 38 6
a 38 39 3
a 39 38 3
a 39 48 2
a 48 39 2
a 39 40 3
a 40 39 3
a 40 49 3
a 49 40 3
a 40 41 9
a 41 40 9
a 41 50 9
a 50 41 9
a 43 52 4
a 52 43 4
a 43 44 4
a 44 43 4
a 44 45 3
a 45 44 3
a 45 54 10
a 54 45 10
a 46 55 3
a 55 46 3
a 46 47 9
a 47 46 9
a 47 56 1
a 56 47 1
a 47 48 7
a 48 47 7
a 48 57 10
a 57 48 10
a 48 49 6
a 49 48 6
a 49 58 8
a 58 49 8
a 49 50 7
a 50 49 7
a 50 59 3
a 59 50 3
a 50 51 9
a 51 50 9
a 51 60 10
a 60 51 10
a 51 52 3
a 52 51 3
a 52 61 9
a 61 52 9
a 54 63 6
a 63 54 6
a 55 64 5
a 64 55 5
a 55 56 5
a 56 55 5
a 56 65 2
a 65 56 2
a 56 57 1
a 57 56 1
a 57 66 4
a 66 57 4
a 57 58 9
a 58 57 9
a 58 67 8
a 67 58 8
a 58 59 3
a 59 58 3
a 59 68 3
a 68 59 3
a 59 60 10
a 60 59 10
a 60 69 2
a 69 60 2
a 60 61 10
a 61 60 10
a 61 70 9
a 70 61 9
a 61 62 4
a 62 61 4
a 62 71 1
a 71 62 1
a 62 63 3
a 63 62 3
a 63 72 5
a 72 63 5
a 64 73 1
a 73 64 1
a 64 65 8
a 65 64 8
a 65 74 4
a 74 65 4
a 65 66 4
a 66 65 4
a 66 75 6
a 75 66 6
a 66 67 5
a 67 66 5
a 67 76 3
a 76 67 3
a 67 68 1
a 68 67 1
a 68 77 10
a 77 68 10
a 68 69 4
a 69 68 4
a 69 78 1
a 78 69 1
a 69 70 10
a 70 69 10
a 70 79 9
a 79 70 9
a 70 71 1
a 71 70 1
a 71 80 6
a 80 71 6
a 71 72 7
a 72 71 7
a 72 81 10
a 81 72 10
a 73 74 7
a 74 73 7
a 74 75 5
a 75 74 5
a 75 76 7
a 76 75 7
a 76 77 4
a 77 76 4
a 77 78 10
a 78 77 10
a 78 79 2
a 79 78 2
a 79 80 6
a 80 79 6
a 80 81 8
a 81 80 8
